db/inputs/3152515150248021664834225657634429.smt2
(set-logic QF_FP)
(declare-const x0 (_ FloatingPoint 11 53))
(declare-const x1 (_ FloatingPoint 11 53))
(declare-const x2 (_ FloatingPoint 11 53))
(declare-const x3 (_ FloatingPoint 11 53))
(declare-const x4 (_ FloatingPoint 11 53))
(declare-const x5 (_ FloatingPoint 11 53))
(assert (fp.geq (fp.mul RNE x0 x4) (fp.sub RNE x5 x0)))
(assert (fp.leq (fp.mul RNE x1 x2) (fp.neg x1)))
(assert (fp.lt (fp.div RNE x2 x1) (fp.neg x3)))
(assert (fp.leq (fp.add RNE x5 x5) (fp.sub RNE x3 x5)))
(assert (fp.lt (fp.div RNE x3 x4) (fp.sub RNE x4 x2)))
(assert (fp.lt (fp.neg x1) (fp.div RNE x2 x4)))
(assert (fp.eq (fp.neg x2) (fp.add RNE x2 x4)))
(assert (fp.geq (fp.div RNE x3 x3) (fp.mul RNE x5 x4)))
(assert (fp.eq (fp.div RNE x0 x2) (fp.add RNE x5 x1)))
(assert (fp.leq (fp.mul RNE x5 x3) (fp.mul RNE x2 x0)))
(assert (fp.geq (fp.sub RNE x4 x0) (fp.add RNE x3 x0)))
(assert (fp.lt (fp.sub RNE x2 x1) (fp.neg x2)))
(assert (fp.leq (fp.neg x4) (fp.add RNE x0 x0)))
(check-sat)
