db/data/3152515150248021664834225657634429.z3.out
-------------------
2500.105466759
